c colouring generated by benchmark framework
p edge 1000 245830
v 1 25
v 2 103
v 3 76
v 4 45
v 5 39
v 6 81
v 7 3
v 8 68
v 9 72
v 10 21
v 11 32
v 12 107
v 13 14
v 14 101
v 15 58
v 16 81
v 17 107
v 18 116
v 19 17
v 20 88
v 21 73
v 22 14
v 23 86
v 24 61
v 25 82
v 26 19
v 27 75
v 28 24
v 29 84
v 30 60
v 31 71
v 32 21
v 33 60
v 34 111
v 35 97
v 36 38
v 37 94
v 38 64
v 39 117
v 40 74
v 41 42
v 42 85
v 43 68
v 44 82
v 45 80
v 46 88
v 47 55
v 48 75
v 49 108
v 50 69
v 51 44
v 52 110
v 53 63
v 54 47
v 55 1
v 56 118
v 57 11
v 58 56
v 59 103
v 60 1
v 61 23
v 62 43
v 63 56
v 64 13
v 65 108
v 66 18
v 67 72
v 68 75
v 69 69
v 70 35
v 71 70
v 72 31
v 73 113
v 74 10
v 75 66
v 76 33
v 77 65
v 78 76
v 79 15
v 80 101
v 81 13
v 82 39
v 83 70
v 84 62
v 85 49
v 86 53
v 87 88
v 88 98
v 89 17
v 90 51
v 91 29
v 92 98
v 93 83
v 94 101
v 95 48
v 96 54
v 97 79
v 98 30
v 99 5
v 100 95
v 101 40
v 102 114
v 103 83
v 104 68
v 105 53
v 106 28
v 107 58
v 108 14
v 109 14
v 110 89
v 111 23
v 112 67
v 113 48
v 114 110
v 115 99
v 116 9
v 117 106
v 118 4
v 119 7
v 120 87
v 121 88
v 122 38
v 123 22
v 124 109
v 125 80
v 126 33
v 127 96
v 128 22
v 129 66
v 130 17
v 131 69
v 132 43
v 133 22
v 134 106
v 135 97
v 136 13
v 137 20
v 138 57
v 139 71
v 140 89
v 141 24
v 142 11
v 143 36
v 144 15
v 145 14
v 146 94
v 147 66
v 148 50
v 149 50
v 150 87
v 151 37
v 152 38
v 153 10
v 154 26
v 155 85
v 156 77
v 157 9
v 158 9
v 159 56
v 160 78
v 161 82
v 162 91
v 163 57
v 164 97
v 165 25
v 166 51
v 167 5
v 168 11
v 169 31
v 170 34
v 171 8
v 172 47
v 173 65
v 174 57
v 175 106
v 176 90
v 177 1
v 178 10
v 179 16
v 180 40
v 181 87
v 182 61
v 183 15
v 184 36
v 185 60
v 186 90
v 187 108
v 188 80
v 189 76
v 190 8
v 191 86
v 192 35
v 193 42
v 194 64
v 195 68
v 196 27
v 197 0
v 198 11
v 199 108
v 200 58
v 201 21
v 202 89
v 203 42
v 204 66
v 205 46
v 206 28
v 207 28
v 208 72
v 209 10
v 210 71
v 211 31
v 212 44
v 213 63
v 214 74
v 215 64
v 216 41
v 217 59
v 218 29
v 219 77
v 220 4
v 221 7
v 222 32
v 223 99
v 224 88
v 225 63
v 226 11
v 227 101
v 228 8
v 229 39
v 230 24
v 231 13
v 232 116
v 233 15
v 234 32
v 235 90
v 236 49
v 237 30
v 238 97
v 239 79
v 240 34
v 241 18
v 242 13
v 243 6
v 244 1
v 245 46
v 246 55
v 247 111
v 248 56
v 249 89
v 250 33
v 251 90
v 252 21
v 253 56
v 254 53
v 255 83
v 256 73
v 257 50
v 258 76
v 259 87
v 260 75
v 261 14
v 262 16
v 263 28
v 264 62
v 265 51
v 266 29
v 267 20
v 268 5
v 269 104
v 270 42
v 271 76
v 272 109
v 273 20
v 274 86
v 275 71
v 276 62
v 277 92
v 278 35
v 279 60
v 280 55
v 281 69
v 282 6
v 283 40
v 284 57
v 285 41
v 286 23
v 287 51
v 288 113
v 289 31
v 290 105
v 291 29
v 292 93
v 293 98
v 294 69
v 295 104
v 296 77
v 297 59
v 298 12
v 299 10
v 300 3
v 301 97
v 302 67
v 303 87
v 304 95
v 305 1
v 306 31
v 307 7
v 308 85
v 309 34
v 310 10
v 311 113
v 312 97
v 313 79
v 314 2
v 315 71
v 316 46
v 317 109
v 318 60
v 319 30
v 320 13
v 321 54
v 322 52
v 323 76
v 324 27
v 325 113
v 326 22
v 327 16
v 328 100
v 329 65
v 330 39
v 331 5
v 332 103
v 333 93
v 334 107
v 335 49
v 336 64
v 337 13
v 338 31
v 339 117
v 340 88
v 341 20
v 342 72
v 343 54
v 344 20
v 345 97
v 346 42
v 347 119
v 348 73
v 349 71
v 350 89
v 351 21
v 352 62
v 353 54
v 354 60
v 355 43
v 356 18
v 357 56
v 358 5
v 359 24
v 360 59
v 361 36
v 362 64
v 363 44
v 364 17
v 365 74
v 366 37
v 367 1
v 368 24
v 369 87
v 370 21
v 371 80
v 372 39
v 373 103
v 374 91
v 375 48
v 376 81
v 377 22
v 378 35
v 379 64
v 380 34
v 381 78
v 382 33
v 383 57
v 384 54
v 385 10
v 386 2
v 387 80
v 388 4
v 389 58
v 390 56
v 391 33
v 392 36
v 393 47
v 394 55
v 395 37
v 396 59
v 397 28
v 398 107
v 399 22
v 400 7
v 401 98
v 402 95
v 403 41
v 404 62
v 405 45
v 406 33
v 407 12
v 408 90
v 409 34
v 410 79
v 411 73
v 412 27
v 413 93
v 414 100
v 415 76
v 416 101
v 417 18
v 418 48
v 419 4
v 420 29
v 421 0
v 422 42
v 423 26
v 424 20
v 425 63
v 426 4
v 427 16
v 428 23
v 429 38
v 430 78
v 431 23
v 432 17
v 433 7
v 434 81
v 435 27
v 436 48
v 437 30
v 438 45
v 439 25
v 440 59
v 441 84
v 442 49
v 443 26
v 444 82
v 445 89
v 446 37
v 447 80
v 448 84
v 449 25
v 450 87
v 451 8
v 452 73
v 453 40
v 454 93
v 455 122
v 456 88
v 457 53
v 458 12
v 459 78
v 460 46
v 461 44
v 462 30
v 463 63
v 464 27
v 465 45
v 466 70
v 467 12
v 468 26
v 469 98
v 470 6
v 471 116
v 472 86
v 473 39
v 474 4
v 475 0
v 476 105
v 477 92
v 478 71
v 479 43
v 480 42
v 481 57
v 482 78
v 483 87
v 484 94
v 485 96
v 486 104
v 487 72
v 488 4
v 489 53
v 490 83
v 491 66
v 492 83
v 493 5
v 494 60
v 495 30
v 496 75
v 497 110
v 498 111
v 499 98
v 500 25
v 501 117
v 502 83
v 503 17
v 504 19
v 505 50
v 506 73
v 507 16
v 508 62
v 509 11
v 510 100
v 511 77
v 512 69
v 513 104
v 514 109
v 515 28
v 516 99
v 517 29
v 518 56
v 519 48
v 520 3
v 521 60
v 522 96
v 523 83
v 524 0
v 525 10
v 526 112
v 527 84
v 528 18
v 529 16
v 530 91
v 531 23
v 532 104
v 533 33
v 534 92
v 535 92
v 536 40
v 537 54
v 538 63
v 539 90
v 540 36
v 541 57
v 542 50
v 543 64
v 544 79
v 545 6
v 546 93
v 547 115
v 548 95
v 549 0
v 550 9
v 551 38
v 552 42
v 553 30
v 554 41
v 555 57
v 556 6
v 557 37
v 558 8
v 559 18
v 560 2
v 561 55
v 562 7
v 563 34
v 564 103
v 565 90
v 566 102
v 567 71
v 568 54
v 569 2
v 570 75
v 571 47
v 572 58
v 573 75
v 574 25
v 575 19
v 576 9
v 577 20
v 578 17
v 579 28
v 580 39
v 581 99
v 582 74
v 583 44
v 584 3
v 585 22
v 586 83
v 587 1
v 588 114
v 589 55
v 590 40
v 591 32
v 592 44
v 593 66
v 594 111
v 595 37
v 596 61
v 597 35
v 598 63
v 599 65
v 600 93
v 601 53
v 602 67
v 603 96
v 604 58
v 605 9
v 606 74
v 607 15
v 608 64
v 609 24
v 610 68
v 611 80
v 612 80
v 613 108
v 614 3
v 615 68
v 616 45
v 617 11
v 618 39
v 619 9
v 620 118
v 621 94
v 622 100
v 623 82
v 624 26
v 625 49
v 626 34
v 627 84
v 628 110
v 629 97
v 630 69
v 631 98
v 632 92
v 633 114
v 634 41
v 635 50
v 636 55
v 637 100
v 638 26
v 639 112
v 640 68
v 641 105
v 642 102
v 643 10
v 644 74
v 645 121
v 646 58
v 647 107
v 648 8
v 649 9
v 650 67
v 651 73
v 652 6
v 653 81
v 654 78
v 655 54
v 656 84
v 657 18
v 658 92
v 659 12
v 660 62
v 661 2
v 662 66
v 663 36
v 664 112
v 665 67
v 666 79
v 667 119
v 668 65
v 669 21
v 670 73
v 671 48
v 672 23
v 673 36
v 674 34
v 675 120
v 676 40
v 677 15
v 678 52
v 679 15
v 680 21
v 681 43
v 682 77
v 683 90
v 684 4
v 685 91
v 686 81
v 687 52
v 688 54
v 689 117
v 690 71
v 691 16
v 692 15
v 693 82
v 694 15
v 695 100
v 696 101
v 697 78
v 698 103
v 699 36
v 700 101
v 701 42
v 702 82
v 703 32
v 704 83
v 705 107
v 706 96
v 707 52
v 708 102
v 709 48
v 710 59
v 711 67
v 712 68
v 713 33
v 714 47
v 715 102
v 716 4
v 717 86
v 718 41
v 719 68
v 720 25
v 721 29
v 722 21
v 723 49
v 724 89
v 725 106
v 726 78
v 727 12
v 728 112
v 729 75
v 730 109
v 731 86
v 732 93
v 733 30
v 734 72
v 735 14
v 736 39
v 737 67
v 738 88
v 739 30
v 740 37
v 741 74
v 742 28
v 743 106
v 744 65
v 745 114
v 746 47
v 747 3
v 748 19
v 749 91
v 750 105
v 751 38
v 752 46
v 753 1
v 754 19
v 755 5
v 756 83
v 757 52
v 758 74
v 759 14
v 760 62
v 761 99
v 762 115
v 763 69
v 764 64
v 765 63
v 766 50
v 767 61
v 768 27
v 769 60
v 770 65
v 771 7
v 772 45
v 773 92
v 774 33
v 775 25
v 776 116
v 777 4
v 778 53
v 779 2
v 780 105
v 781 116
v 782 104
v 783 6
v 784 0
v 785 24
v 786 70
v 787 65
v 788 108
v 789 81
v 790 113
v 791 18
v 792 2
v 793 14
v 794 110
v 795 72
v 796 44
v 797 28
v 798 110
v 799 43
v 800 8
v 801 69
v 802 70
v 803 17
v 804 61
v 805 65
v 806 35
v 807 14
v 808 72
v 809 19
v 810 121
v 811 46
v 812 12
v 813 8
v 814 65
v 815 99
v 816 80
v 817 35
v 818 94
v 819 96
v 820 32
v 821 61
v 822 49
v 823 3
v 824 109
v 825 85
v 826 52
v 827 17
v 828 84
v 829 21
v 830 26
v 831 33
v 832 41
v 833 77
v 834 27
v 835 31
v 836 51
v 837 29
v 838 20
v 839 45
v 840 84
v 841 108
v 842 77
v 843 67
v 844 22
v 845 46
v 846 43
v 847 24
v 848 85
v 849 51
v 850 5
v 851 26
v 852 3
v 853 79
v 854 85
v 855 70
v 856 95
v 857 9
v 858 103
v 859 6
v 860 29
v 861 86
v 862 40
v 863 2
v 864 58
v 865 85
v 866 9
v 867 66
v 868 38
v 869 16
v 870 88
v 871 79
v 872 120
v 873 12
v 874 123
v 875 44
v 876 112
v 877 19
v 878 25
v 879 34
v 880 91
v 881 89
v 882 113
v 883 43
v 884 94
v 885 77
v 886 1
v 887 102
v 888 114
v 889 47
v 890 94
v 891 27
v 892 11
v 893 45
v 894 96
v 895 13
v 896 22
v 897 51
v 898 49
v 899 27
v 900 46
v 901 59
v 902 37
v 903 64
v 904 7
v 905 13
v 906 66
v 907 52
v 908 117
v 909 3
v 910 18
v 911 81
v 912 47
v 913 2
v 914 76
v 915 0
v 916 19
v 917 46
v 918 119
v 919 102
v 920 10
v 921 59
v 922 49
v 923 120
v 924 48
v 925 47
v 926 112
v 927 21
v 928 52
v 929 44
v 930 24
v 931 37
v 932 50
v 933 50
v 934 38
v 935 115
v 936 115
v 937 20
v 938 49
v 939 70
v 940 82
v 941 26
v 942 4
v 943 28
v 944 59
v 945 99
v 946 35
v 947 11
v 948 55
v 949 95
v 950 43
v 951 109
v 952 109
v 953 61
v 954 81
v 955 73
v 956 32
v 957 16
v 958 32
v 959 31
v 960 45
v 961 38
v 962 20
v 963 31
v 964 84
v 965 23
v 966 95
v 967 92
v 968 32
v 969 12
v 970 111
v 971 112
v 972 30
v 973 78
v 974 34
v 975 51
v 976 105
v 977 41
v 978 65
v 979 96
v 980 74
v 981 36
v 982 104
v 983 47
v 984 18
v 985 67
v 986 2
v 987 27
v 988 0
v 989 89
v 990 74
v 991 17
v 992 118
v 993 53
v 994 11
v 995 94
v 996 36
v 997 61
v 998 99
v 999 25
v 1000 116
